(declare-const p7_7 Real)
(declare-const income Real)
(declare-const p10_5 Real)
(declare-const p14_7 Real)
(declare-const special Real)
(declare-const p20_5 Real)
(declare-const p5_06 Real)
(declare-const sin Real)
(declare-const p16_8 Real)
(declare-const fee_bl Real)
(declare-const p12_29 Real)
(assert (= p5_06 (* 0.0506 (ite (> income 49279) 49279 income))))
(assert (= p7_7 (ite (> income 49279) (* 0.077 (- (ite (> income 98560) 98560 income) 49279)) 0)))
(assert (= p10_5 (ite (> income 98560) (* 0.105 (- (ite (> income 113158) 113158 income) 98560)) 0)))
(assert (= p12_29 (ite (> income 113158) (* 0.1229 (- (ite (> income 137407) 137407 income) 113158)) 0)))
(assert (= p14_7 (ite (> income 137407) (* 0.147 (- (ite (> income 186306) 186306 income) 137407)) 0)))
(assert (= p16_8 (ite (> income 186306) (* 0.168 (- (ite (> income 259829) 259829 income) 186306)) 0)))
(assert (= p20_5 (ite (> income 259829) (* 0.205 (- income 259829)) 0)))
(assert (= special (ite (>= sin 900000000) 0 1)))
(assert (= fee_bl (* special (+ (+ (+ (+ (+ (+ p5_06 p7_7) p10_5) p12_29) p14_7) p16_8) p20_5))))